Route #1: 77 23 44 26 11 64 40 53
Route #2: 10 68 18 25 42 16 66 60 6
Route #3: 41 14 36 59 35 55 33 74
Route #4: 50 61 39 48 13 4 28 19 9
Route #5: 62 54 20 3 31 51 71 22
Route #6: 8 15 12 34 46 45
Route #7: 57 7 32 76 73 29
Route #8: 63 5 30 70 37 75 49
Route #9: 2 27 65 47 56 69 24 1
Route #10: 52 21 43 67 38 58 72 17
Cost 1275